29
1 0 18
2 0 33
2 1 41
3 0 4
3 1 22
3 2 14
4 0 26
4 1 27
4 2 37
4 3 21
5 0 26
5 1 19
5 2 10
5 3 31
5 4 26
6 0 26
6 1 38
6 2 14
6 3 40
6 4 29
6 5 16
7 0 12
7 1 9
7 2 38
7 3 24
7 4 41
7 5 2
7 6 25
8 0 17
8 1 22
8 2 14
8 3 1
8 4 40
8 5 19
8 6 33
8 7 40
9 0 12
9 1 12
9 2 21
9 3 15
9 4 25
9 5 34
9 6 3
9 7 3
9 8 36
10 0 22
10 1 16
10 2 10
10 3 22
10 4 1
10 5 13
10 6 23
10 7 34
10 8 29
10 9 17
11 0 14
11 1 20
11 2 6
11 3 33
11 4 18
11 5 13
11 6 24
11 7 37
11 8 38
11 9 2
11 10 29
12 0 15
12 1 33
12 2 16
12 3 23
12 4 16
12 5 24
12 6 20
12 7 16
12 8 27
12 9 24
12 10 38
12 11 21
13 0 9
13 1 24
13 2 36
13 3 32
13 4 4
13 5 36
13 6 15
13 7 1
13 8 22
13 9 40
13 10 29
13 11 27
13 12 8
14 0 21
14 1 7
14 2 12
14 3 23
14 4 4
14 5 38
14 6 4
14 7 23
14 8 6
14 9 28
14 10 10
14 11 1
14 12 37
14 13 16
15 0 14
15 1 16
15 2 16
15 3 2
15 4 19
15 5 6
15 6 28
15 7 27
15 8 14
15 9 22
15 10 33
15 11 20
15 12 13
15 13 27
15 14 26
16 0 18
16 1 2
16 2 3
16 3 31
16 4 16
16 5 34
16 6 16
16 7 34
16 8 6
16 9 20
16 10 23
16 11 37
16 12 3
16 13 29
16 14 34
16 15 1
17 0 9
17 1 23
17 2 24
17 3 1
17 4 13
17 5 15
17 6 16
17 7 32
17 8 22
17 9 23
17 10 9
17 11 11
17 12 10
17 13 31
17 14 23
17 15 22
17 16 23
18 0 15
18 1 29
18 2 17
18 3 13
18 4 18
18 5 30
18 6 1
18 7 27
18 8 25
18 9 34
18 10 3
18 11 25
18 12 18
18 13 39
18 14 17
18 15 3
18 16 7
18 17 37
19 0 30
19 1 6
19 2 7
19 3 18
19 4 4
19 5 2
19 6 40
19 7 6
19 8 19
19 9 20
19 10 17
19 11 34
19 12 3
19 13 28
19 14 34
19 15 31
19 16 34
19 17 14
19 18 5
20 0 12
20 1 33
20 2 39
20 3 31
20 4 19
20 5 14
20 6 28
20 7 18
20 8 21
20 9 38
20 10 16
20 11 16
20 12 26
20 13 2
20 14 27
20 15 14
20 16 11
20 17 16
20 18 37
20 19 24
21 0 39
21 1 29
21 2 38
21 3 32
21 4 4
21 5 11
21 6 14
21 7 19
21 8 25
21 9 1
21 10 1
21 11 13
21 12 15
21 13 9
21 14 10
21 15 21
21 16 8
21 17 33
21 18 6
21 19 4
21 20 28
22 0 22
22 1 5
22 2 39
22 3 32
22 4 27
22 5 27
22 6 25
22 7 22
22 8 26
22 9 5
22 10 17
22 11 1
22 12 40
22 13 15
22 14 21
22 15 6
22 16 26
22 17 9
22 18 32
22 19 20
22 20 17
22 21 14
23 0 18
23 1 39
23 2 38
23 3 25
23 4 12
23 5 25
23 6 20
23 7 21
23 8 33
23 9 37
23 10 36
23 11 36
23 12 1
23 13 10
23 14 35
23 15 41
23 16 24
23 17 24
23 18 31
23 19 6
23 20 8
23 21 30
23 22 25
24 0 33
24 1 3
24 2 5
24 3 29
24 4 6
24 5 14
24 6 21
24 7 15
24 8 28
24 9 26
24 10 36
24 11 30
24 12 8
24 13 3
24 14 14
24 15 6
24 16 5
24 17 20
24 18 1
24 19 1
24 20 4
24 21 25
24 22 40
24 23 11
25 0 21
25 1 16
25 2 32
25 3 8
25 4 3
25 5 4
25 6 19
25 7 39
25 8 28
25 9 15
25 10 25
25 11 28
25 12 17
25 13 25
25 14 39
25 15 40
25 16 7
25 17 19
25 18 1
25 19 15
25 20 11
25 21 2
25 22 6
25 23 37
25 24 8
26 0 18
26 1 18
26 2 4
26 3 7
26 4 16
26 5 5
26 6 23
26 7 15
26 8 14
26 9 23
26 10 24
26 11 29
26 12 8
26 13 37
26 14 41
26 15 36
26 16 17
26 17 34
26 18 9
26 19 35
26 20 17
26 21 17
26 22 24
26 23 30
26 24 19
26 25 17
27 0 2
27 1 20
27 2 8
27 3 6
27 4 33
27 5 5
27 6 33
27 7 10
27 8 34
27 9 26
27 10 13
27 11 8
27 12 2
27 13 1
27 14 27
27 15 25
27 16 18
27 17 32
27 18 15
27 19 4
27 20 3
27 21 2
27 22 39
27 23 34
27 24 38
27 25 40
27 26 28
28 0 34
28 1 25
28 2 12
28 3 35
28 4 19
28 5 9
28 6 41
28 7 5
28 8 35
28 9 24
28 10 24
28 11 16
28 12 18
28 13 18
28 14 13
28 15 10
28 16 9
28 17 12
28 18 25
28 19 41
28 20 1
28 21 32
28 22 6
28 23 31
28 24 27
28 25 18
28 26 26
28 27 10
